TITLE : An_Mix_Test_Example_4_1
        (14:27:26 on June 12, 2024, Wednesday)

C O N T R O L   I N F O R M A T I O N

      NUMBER OF NODAL POINTS . . . . . . . . . . (NUMNP)  =     5
      NUMBER OF ELEMENT GROUPS . . . . . . . . . (NUMEG)  =     2
      NUMBER OF LOAD CASES . . . . . . . . . . . (NLCASE) =     1
      SOLUTION MODE  . . . . . . . . . . . . . . (MODEX)  =     1
         EQ.0, DATA CHECK
         EQ.1, EXECUTION

 N O D A L   P O I N T   D A T A

    NODE       BOUNDARY                         NODAL POINT
   NUMBER  CONDITION  CODES                     COORDINATES
        1    1    1    1       0.00000e+00    0.00000e+00    0.00000e+00
        2    0    1    1       2.50000e+00    0.00000e+00    0.00000e+00
        3    0    0    1       2.50000e+00    3.00000e+00    0.00000e+00
        4    0    0    1       0.00000e+00    2.00000e+00    0.00000e+00
        5    0    0    1       1.00000e+00    5.00000e-01    0.00000e+00

 L O A D   C A S E   D A T A

     LOAD CASE NUMBER . . . . . . . =     1
     NUMBER OF CONCENTRATED LOADS . =     0
     NUMBER OF NATURAL BC . =     3

    NODE          DIRECTION         LOAD            ELEMENT
   NUMBER                         MAGNITUDE         NUMBER
      1  4      1       -1.00000e+01 -1.00000e+01        1
      3  4      1       -3.71390e+00 -3.71390e+00        1
      2  3      1        1.00000e+01  1.00000e+01        1

 E L E M E N T   G R O U P   D A T A


 E L E M E N T   D E F I N I T I O N

 ELEMENT TYPE  . . . . . . . . . . . . .( NPAR(1) ) . . =    3
     EQ.1, TRUSS ELEMENTS
     EQ.2, Q4 ELEMENTS
     EQ.3, T3 ELEMENTS
     EQ.4, NOT AVAILABLE

 NUMBER OF ELEMENTS. . . . . . . . . . .( NPAR(2) ) . . =    2

 M A T E R I A L   D E F I N I T I O N

 NUMBER OF DIFFERENT SETS OF MATERIAL
 AND CROSS-SECTIONAL  CONSTANTS  . . . .( NPAR(3) ) . . =    1

  SET       YOUNG'S         POISSON          THICK            PLANE
 NUMBER     MODULUS          RATIO           -NESS           STRESS
               E               MU              T              FLAG
    1     1.00000e+03     3.00000e-01     1.00000e+00           0


 E L E M E N T   I N F O R M A T I O N
 ELEMENT     NODE     NODE     NODE       MATERIAL
 NUMBER-N      A        B        C        SET NUMBER
    1          1        5        4           1
    2          1        2        5           1

 E L E M E N T   D E F I N I T I O N

 ELEMENT TYPE  . . . . . . . . . . . . .( NPAR(1) ) . . =    2
     EQ.1, TRUSS ELEMENTS
     EQ.2, Q4 ELEMENTS
     EQ.3, T3 ELEMENTS
     EQ.4, NOT AVAILABLE

 NUMBER OF ELEMENTS. . . . . . . . . . .( NPAR(2) ) . . =    1

 M A T E R I A L   D E F I N I T I O N

 NUMBER OF DIFFERENT SETS OF MATERIAL
 AND PLATE MATERIAL CONSTANTS  . . . .( NPAR(3) ) . . =    1

  SET       YOUNG'S         POISSON          THICK            PLANE
 NUMBER     MODULUS          RATIO           -NESS           STRESS
               E               MU              T              FLAG
    1     1.00000e+03     3.00000e-01     1.00000e+00           0


 E L E M E N T   I N F O R M A T I O N
 ELEMENT     NODE     NODE     NODE     NODE       MATERIAL
 NUMBER-N      A        B        C        D       SET NUMBER
    1          4        5        2        3           1

 EQUATION NUMBERS

   NODE NUMBER   DEGREES OF FREEDOM
        N           X    Y    Z
        1           0    0    0
        2           1    0    0
        3           2    3    0
        4           4    5    0
        5           6    7    0

	TOTAL SYSTEM DATA

     NUMBER OF EQUATIONS . . . . . . . . . . . . . .(NEQ) = 7
     NUMBER OF MATRIX ELEMENTS . . . . . . . . . . .(NWK) = 28
     MAXIMUM HALF BANDWIDTH  . . . . . . . . . . . .(MK ) = 7
     MEAN HALF BANDWIDTH . . . . . . . . . . . . . .(MM ) = 4


 LOAD CASE    1


 D I S P L A C E M E N T S

  NODE           X-DISPLACEMENT    Y-DISPLACEMENT    Z-DISPLACEMENT
    1               0.00000e+00       0.00000e+00       0.00000e+00
    2               2.50000e-02       0.00000e+00       0.00000e+00
    3               2.50001e-02      -9.00003e-03       0.00000e+00
    4               7.28155e-08      -5.99997e-03       0.00000e+00
    5               1.00000e-02      -1.50000e-03       0.00000e+00

 S T R E S S  C A L C U L A T I O N S  F O R  E L E M E N T  G R O U P    1

  ELEMENT            STRESS
  NUMBER
    1           1.00000e+01       1.53684e-05       1.09464e-05
    2           1.00000e+01       2.41302e-07       8.54559e-06

 S T R E S S  C A L C U L A T I O N S  F O R  E L E M E N T  G R O U P    2

  ELEMENT(GAUSS)                                      STRESS COMPONENTS
     NUMBER          S11             S22             S33             S12             S13             S23
    1 (-,-)       1.00000e+01    -3.47866e-07     0.00000e+00     4.69925e-06     0.00000e+00     0.00000e+00
    1 (-,+)       1.00000e+01    -9.17689e-06     0.00000e+00     3.89942e-06     0.00000e+00     0.00000e+00
    1 (+,-)       1.00000e+01     8.98354e-06     0.00000e+00     1.14581e-05     0.00000e+00     0.00000e+00
    1 (+,+)       1.00000e+01    -6.45849e-06     0.00000e+00     7.99699e-06     0.00000e+00     0.00000e+00


 S O L U T I O N   T I M E   L O G   I N   S E C 

     TIME FOR INPUT PHASE = 3.50000e-02
     TIME FOR CALCULATION OF STIFFNESS MATRIX = 1.00000e-03
     TIME FOR FACTORIZATION AND LOAD CASE SOLUTIONS = 1.60000e-02

     T O T A L   S O L U T I O N   T I M E = 5.20000e-02

