TITLE : An_Tet4_Body2_Test
        (14:14:38 on June 18, 2024, Tuesday)

C O N T R O L   I N F O R M A T I O N

      NUMBER OF NODAL POINTS . . . . . . . . . . (NUMNP)  =     5
      NUMBER OF ELEMENT GROUPS . . . . . . . . . (NUMEG)  =     1
      NUMBER OF LOAD CASES . . . . . . . . . . . (NLCASE) =     1
      SOLUTION MODE  . . . . . . . . . . . . . . (MODEX)  =     1
         EQ.0, DATA CHECK
         EQ.1, EXECUTION

 N O D A L   P O I N T   D A T A

    NODE       BOUNDARY                         NODAL POINT
   NUMBER  CONDITION  CODES                     COORDINATES
        1    1    1    1       1.25000e+00   -4.50000e-01    0.00000e+00
        2    0    0    0       7.50000e-01    5.50000e-01    5.00000e-01
        3    1    1    1       1.25000e+00   -4.50000e-01    1.00000e+00
        4    1    1    1       2.50000e-01   -4.50000e-01    1.00000e+00
        5    1    1    1       2.50000e-01   -4.50000e-01    0.00000e+00

 L O A D   C A S E   D A T A

     LOAD CASE NUMBER . . . . . . . =     1
     NUMBER OF CONCENTRATED LOADS . =     1
     NUMBER OF NATURAL BC . =     0

    NODE          DIRECTION         LOAD            ELEMENT
   NUMBER                         MAGNITUDE         NUMBER
                2            2       -1.00000e+00

 E L E M E N T   G R O U P   D A T A


 E L E M E N T   D E F I N I T I O N

 ELEMENT TYPE  . . . . . . . . . . . . .( NPAR(1) ) . . =    5
     EQ.1, TRUSS ELEMENTS
     EQ.2, Q4 ELEMENTS
     EQ.3, T3 ELEMENTS
     EQ.4, H8 ELEMENTS
     EQ.4, Tet4 ELEMENTS

 NUMBER OF ELEMENTS. . . . . . . . . . .( NPAR(2) ) . . =    2

 M A T E R I A L   D E F I N I T I O N

 NUMBER OF DIFFERENT SETS OF MATERIAL
 AND PLATE MATERIAL CONSTANTS  . . . .( NPAR(3) ) . . =    1

  SET       YOUNG'S         POISSON
 NUMBER     MODULUS          RATIO
               E               MU
    1     1.00000e+06     3.00000e-01


 E L E M E N T   I N F O R M A T I O N
 ELEMENT     NODE     NODE     NODE     NODE       MATERIAL
 NUMBER-N      A        B        C        D       SET NUMBER
    1          2        5        3        4           1
    2          3        5        2        1           1

 EQUATION NUMBERS

   NODE NUMBER   DEGREES OF FREEDOM
        N           X    Y    Z
        1           0    0    0
        2           1    2    3
        3           0    0    0
        4           0    0    0
        5           0    0    0

	TOTAL SYSTEM DATA

     NUMBER OF EQUATIONS . . . . . . . . . . . . . .(NEQ) = 3
     NUMBER OF MATRIX ELEMENTS . . . . . . . . . . .(NWK) = 6
     MAXIMUM HALF BANDWIDTH  . . . . . . . . . . . .(MK ) = 3
     MEAN HALF BANDWIDTH . . . . . . . . . . . . . .(MM ) = 2


 LOAD CASE    1


 D I S P L A C E M E N T S

  NODE           X-DISPLACEMENT    Y-DISPLACEMENT    Z-DISPLACEMENT
    1               0.00000e+00       0.00000e+00       0.00000e+00
    2               0.00000e+00      -1.39286e-05       4.83244e-22
    3               0.00000e+00       0.00000e+00       0.00000e+00
    4               0.00000e+00       0.00000e+00       0.00000e+00
    5               0.00000e+00       0.00000e+00       0.00000e+00

 S T R E S S  C A L C U L A T I O N S  F O R  E L E M E N T  G R O U P    1

  ELEMENT                                             STRESS COMPONENTS
  NUMBER          S11             S22             S33             S12             S13             S23
    1      -1.28571e+00    -3.00000e+00    -1.28571e+00     0.00000e+00     0.00000e+00     5.94762e-18
    2      -1.28571e+00    -3.00000e+00    -1.28571e+00     0.00000e+00     0.00000e+00     2.97381e-17


 S O L U T I O N   T I M E   L O G   I N   S E C 

     TIME FOR INPUT PHASE = 1.30000e-02
     TIME FOR CALCULATION OF STIFFNESS MATRIX = 1.00000e-03
     TIME FOR FACTORIZATION AND LOAD CASE SOLUTIONS = 6.00000e-03

     T O T A L   S O L U T I O N   T I M E = 2.00000e-02

