TITLE : An_Tet4_Body_Test
        (15:15:24 on June 18, 2024, Tuesday)

C O N T R O L   I N F O R M A T I O N

      NUMBER OF NODAL POINTS . . . . . . . . . . (NUMNP)  =     9
      NUMBER OF ELEMENT GROUPS . . . . . . . . . (NUMEG)  =     1
      NUMBER OF LOAD CASES . . . . . . . . . . . (NLCASE) =     1
      SOLUTION MODE  . . . . . . . . . . . . . . (MODEX)  =     1
         EQ.0, DATA CHECK
         EQ.1, EXECUTION

 N O D A L   P O I N T   D A T A

    NODE       BOUNDARY                         NODAL POINT
   NUMBER  CONDITION  CODES                     COORDINATES
        1    0    0    0       7.50000e-01    5.25000e-01    1.00000e+00
        2    0    0    0       7.50000e-01   -4.75000e-01    1.00000e+00
        3    1    1    1       7.50000e-01   -4.75000e-01    0.00000e+00
        4    1    1    1       7.50000e-01    5.25000e-01    0.00000e+00
        5    0    0    0      -2.50000e-01   -4.75000e-01    1.00000e+00
        6    1    1    1      -2.50000e-01   -4.75000e-01    0.00000e+00
        7    1    1    1      -2.50000e-01    5.25000e-01    0.00000e+00
        8    0    0    0      -2.50000e-01    5.25000e-01    1.00000e+00
        9    0    0    0       2.50000e-01    2.51831e-02    5.00000e-01

 L O A D   C A S E   D A T A

     LOAD CASE NUMBER . . . . . . . =     1
     NUMBER OF CONCENTRATED LOADS . =     2
     NUMBER OF NATURAL BC . =     0

    NODE          DIRECTION         LOAD            ELEMENT
   NUMBER                         MAGNITUDE         NUMBER
                8            3        1.00000e+00
                2            3        1.00000e+00

 E L E M E N T   G R O U P   D A T A


 E L E M E N T   D E F I N I T I O N

 ELEMENT TYPE  . . . . . . . . . . . . .( NPAR(1) ) . . =    5
     EQ.1, TRUSS ELEMENTS
     EQ.2, Q4 ELEMENTS
     EQ.3, T3 ELEMENTS
     EQ.4, H8 ELEMENTS
     EQ.4, Tet4 ELEMENTS

 NUMBER OF ELEMENTS. . . . . . . . . . .( NPAR(2) ) . . =   12

 M A T E R I A L   D E F I N I T I O N

 NUMBER OF DIFFERENT SETS OF MATERIAL
 AND PLATE MATERIAL CONSTANTS  . . . .( NPAR(3) ) . . =    1

  SET       YOUNG'S         POISSON
 NUMBER     MODULUS          RATIO
               E               MU
    1     1.00000e+06     3.00000e-01


 E L E M E N T   I N F O R M A T I O N
 ELEMENT     NODE     NODE     NODE     NODE       MATERIAL
 NUMBER-N      A        B        C        D       SET NUMBER
    1          9        6        8        7           1
    2          9        4        6        7           1
    3          9        3        6        4           1
    4          9        4        2        3           1
    5          9        8        2        1           1
    6          9        1        2        4           1
    7          9        2        5        3           1
    8          9        5        2        8           1
    9          9        5        8        6           1
   10          9        3        5        6           1
   11          9        8        1        7           1
   12          9        7        1        4           1

 EQUATION NUMBERS

   NODE NUMBER   DEGREES OF FREEDOM
        N           X    Y    Z
        1           1    2    3
        2           4    5    6
        3           0    0    0
        4           0    0    0
        5           7    8    9
        6           0    0    0
        7           0    0    0
        8          10   11   12
        9          13   14   15

	TOTAL SYSTEM DATA

     NUMBER OF EQUATIONS . . . . . . . . . . . . . .(NEQ) = 15
     NUMBER OF MATRIX ELEMENTS . . . . . . . . . . .(NWK) = 111
     MAXIMUM HALF BANDWIDTH  . . . . . . . . . . . .(MK ) = 15
     MEAN HALF BANDWIDTH . . . . . . . . . . . . . .(MM ) = 7


 LOAD CASE    1


 D I S P L A C E M E N T S

  NODE           X-DISPLACEMENT    Y-DISPLACEMENT    Z-DISPLACEMENT
    1              -2.55755e-07      -2.70123e-07       1.05800e-06
    2              -6.07750e-07       6.85215e-08       2.14536e-06
    3               0.00000e+00       0.00000e+00       0.00000e+00
    4               0.00000e+00       0.00000e+00       0.00000e+00
    5               2.55893e-07       2.70461e-07       1.05830e-06
    6               0.00000e+00       0.00000e+00       0.00000e+00
    7               0.00000e+00       0.00000e+00       0.00000e+00
    8               6.07578e-07      -6.82687e-08       2.14511e-06
    9              -8.67986e-12       2.05244e-11       8.37182e-07

 S T R E S S  C A L C U L A T I O N S  F O R  E L E M E N T  G R O U P    1

  ELEMENT                                             STRESS COMPONENTS
  NUMBER          S11             S22             S33             S12             S13             S23
    1       4.19648e-01     8.87029e-01     2.53712e+00     2.62730e-02     5.26269e-02    -2.62572e-02
    2       9.65979e-01     9.65979e-01     2.25395e+00     0.00000e+00    -6.67681e-06     1.57880e-05
    3       9.65979e-01     9.65979e-01     2.25395e+00     0.00000e+00    -6.67681e-06     1.57880e-05
    4       4.19609e-01     8.87095e-01     2.53737e+00     2.63386e-02    -5.25963e-02     2.63544e-02
    5       1.51514e-01     5.55121e-01     2.82771e+00     5.77463e-02    -4.18129e-01    -4.18182e-01
    6      -4.02913e-01    -1.96022e-01     8.78322e-01     1.61674e-01     8.26331e-02    -5.22109e-01
    7      -8.08405e-02     3.75560e-01     2.23378e+00    -1.76060e-01     1.84352e-01     2.63216e-01
    8       1.51508e-01     5.55287e-01     2.82855e+00     5.75945e-02     4.18092e-01     4.18039e-01
    9      -4.02955e-01    -1.96036e-01     8.78602e-01     1.61584e-01    -8.27899e-02     5.22029e-01
   10       4.54603e-01     2.46663e-01     1.26868e+00    -9.83910e-02     9.84203e-02     3.40885e-01
   11      -8.05354e-02     3.75673e-01     2.23365e+00    -1.76033e-01    -1.84435e-01    -2.63406e-01
   12       4.54465e-01     2.46571e-01     1.26831e+00    -9.83967e-02    -9.83673e-02    -3.41042e-01


 S O L U T I O N   T I M E   L O G   I N   S E C 

     TIME FOR INPUT PHASE = 2.40000e-02
     TIME FOR CALCULATION OF STIFFNESS MATRIX = 0.00000e+00
     TIME FOR FACTORIZATION AND LOAD CASE SOLUTIONS = 2.10000e-02

     T O T A L   S O L U T I O N   T I M E = 4.50000e-02

